
List of user-set options:

                                    Name   Value                used
                acceptable_compl_inf_tol = 1e+10                 yes
              acceptable_constr_viol_tol = 1e-06                 yes
                 acceptable_dual_inf_tol = 1e+10                 yes
                         acceptable_iter = 5                     yes
                          acceptable_tol = 1                     yes
                             alpha_for_y = safer-min-dual-infeas  yes
                  bound_mult_init_method = mu-based              yes
                        file_print_level = 5                     yes
                   hessian_approximation = limited-memory        yes
                           linear_solver = mumps                 yes
                      nlp_scaling_method = gradient-based        yes
                             output_file = C:\Users\steph\Documents\GitHub\gtoc13\__main___out/IPOPT.out  yes
                             print_level = 5                     yes
                      print_user_options = yes                   yes
                                      sb = yes                   yes
                                     tol = 1e-06                 yes
This is Ipopt version 3.14.17, running with linear solver MUMPS 5.7.3.

Number of nonzeros in equality constraint Jacobian...:    94239
Number of nonzeros in inequality constraint Jacobian.:      565
Number of nonzeros in Lagrangian Hessian.............:        0

Total number of variables............................:      747
                     variables with only lower bounds:        1
                variables with lower and upper bounds:      183
                     variables with only upper bounds:        0
Total number of equality constraints.................:      743
Total number of inequality constraints...............:        4
        inequality constraints with only lower bounds:        0
   inequality constraints with lower and upper bounds:        0
        inequality constraints with only upper bounds:        4

iter    objective    inf_pr   inf_du lg(mu)  ||d||  lg(rg) alpha_du alpha_pr  ls
   0 -1.4401710e+01 4.97e+02 1.00e+01   0.0 0.00e+00    -  0.00e+00 0.00e+00   0
   1 -2.4784813e+01 2.97e+02 3.61e+01  -7.0 9.34e+01    -  5.57e-03 7.00e-02h  1
   2 -2.4781568e+01 2.96e+02 7.53e+01   0.1 7.61e+01    -  9.89e-01 7.74e-04h  1
   3 -2.4756072e+01 2.96e+02 5.10e+02   1.6 4.04e+02    -  7.10e-02 1.56e-03f  1
   4 -2.4755183e+01 2.96e+02 8.48e+02  -0.5 1.63e+02    -  1.02e-01 1.96e-05h  1
   5 -2.4193423e+01 2.96e+02 2.43e+04  -5.4 4.39e+04    -  4.42e-04 8.77e-05h  1
   6 -2.4288559e+01 2.96e+02 1.16e+05   2.0 1.12e+05    -  1.64e-04 9.05e-06h  1
   7 -2.4419185e+01 2.96e+02 5.63e+05   2.0 2.01e+05    -  1.17e-04 6.33e-06h  1
   8r-2.4419185e+01 2.96e+02 1.00e+03   2.5 0.00e+00    -  0.00e+00 1.94e-08R  2
   9r-2.4168383e+01 2.99e+02 9.99e+02  -3.6 1.16e+05    -  1.66e-03 1.58e-03f  1
iter    objective    inf_pr   inf_du lg(mu)  ||d||  lg(rg) alpha_du alpha_pr  ls
  10r-2.5617740e+01 2.93e+02 9.86e+02  -3.7 2.83e+04    -  1.75e-02 2.76e-03f  1
  11r-2.5053610e+01 2.76e+02 1.25e+03  -3.6 3.16e+03    -  1.29e-01 1.49e-02f  1
  12r-2.4302619e+01 2.19e+02 1.35e+03   3.4 2.30e+03    -  6.29e-02 4.20e-02f  1
  13 -2.3332934e+01 1.87e+02 3.80e+00  -4.0 5.36e+01    -  3.72e-01 1.50e-01h  1
  14 -1.8170217e+01 2.57e+02 3.77e+01   0.8 3.06e+02    -  8.06e-01 1.58e-01f  2
  15 -1.4398304e+01 1.66e+02 4.06e+01   1.1 4.51e+01  -4.0 1.00e+00 3.73e-01h  1
  16 -1.4395557e+01 1.65e+02 2.17e+01   1.1 4.35e+01    -  1.00e+00 5.99e-03h  1
  17 -1.4502013e+01 1.65e+02 1.87e+03   1.1 1.50e+02    -  5.39e-01 1.87e-03h  1
  18 -1.4406771e+01 1.65e+02 1.75e+03   1.1 1.13e+03    -  2.48e-01 2.14e-04h  7
  19 -1.4311281e+01 1.65e+02 2.28e+03   1.1 1.19e+03    -  8.37e-01 2.03e-04h  7
iter    objective    inf_pr   inf_du lg(mu)  ||d||  lg(rg) alpha_du alpha_pr  ls
  20 -1.4215931e+01 1.65e+02 5.65e+03   1.1 1.20e+03    -  2.38e-01 2.00e-04h  7
  21 -1.4121288e+01 1.65e+02 1.46e+05   1.1 1.15e+03    -  1.00e+00 2.09e-04h  7
  22 -1.4027367e+01 1.65e+02 2.83e+06   1.1 1.11e+03    -  2.54e-01 2.19e-04h  7
  23 -1.3933570e+01 1.65e+02 1.84e+08   1.1 1.12e+03    -  1.00e+00 2.16e-04h  7
  24 -1.3839884e+01 1.65e+02 8.33e+10   1.1 1.14e+03    -  2.55e-01 2.12e-04h  7
  25 -1.3745565e+01 1.65e+02 1.61e+13   1.1 1.23e+03    -  1.00e+00 1.93e-04h  7
  26 -1.3651231e+01 1.65e+02 1.62e+13   1.1 1.27e+03    -  2.35e-01 1.87e-04h  7
  27 -1.3557036e+01 1.65e+02 1.74e+13   1.1 1.28e+03    -  1.00e+00 1.84e-04h  7
  28 -8.9932286e+00 1.86e+02 1.27e+13   1.1 1.30e+03    -  2.35e-01 1.16e-02w  1
  29 -8.1345968e+00 1.86e+02 1.74e+13   1.1 9.93e+02    -  1.34e-01 3.59e-03w  1
iter    objective    inf_pr   inf_du lg(mu)  ||d||  lg(rg) alpha_du alpha_pr  ls
  30 -7.7876029e+00 3.40e+02 1.41e+14   1.1 2.36e+04    -  3.87e-03 2.31e-03w  1
  31 -1.3462984e+01 1.65e+02 1.75e+13   1.1 1.38e+05    -  2.35e-01 1.81e-04h  6
  32 -1.3369081e+01 1.65e+02 1.85e+13   1.1 1.31e+03    -  1.00e+00 1.78e-04h  7
  33 -1.3217825e+01 1.65e+02 1.37e+14   1.1 1.04e+03    -  3.01e-01 3.86e-04h  5
  34 -1.2975748e+01 1.65e+02 1.48e+14   1.1 4.75e+02    -  3.81e-01 2.17e-03h  1
  35 -1.2881525e+01 1.65e+02 5.79e+18   1.1 1.46e+03    -  3.49e-01 1.55e-04h  5
  36 -1.2852883e+01 1.65e+02 1.09e+21   1.1 1.16e+03    -  1.00e+00 6.25e-05h  1
  37 -1.2843379e+01 1.65e+02 3.53e+22   1.1 1.44e+03    -  2.29e-01 1.56e-05h  1
  38r-1.2843379e+01 1.65e+02 1.00e+03   2.2 0.00e+00    -  0.00e+00 4.15e-07R  3
  39r-1.3105640e+01 1.35e+02 1.45e+03   4.1 1.48e+05    -  6.00e-02 1.10e-03f  1
iter    objective    inf_pr   inf_du lg(mu)  ||d||  lg(rg) alpha_du alpha_pr  ls
  40 -1.2983551e+01 1.35e+02 8.74e+10   1.1 3.72e-01  11.4 1.00e+00 1.00e+00h  1
  41 -1.2811595e+01 1.32e+02 7.31e+10   1.1 2.33e+01  10.9 1.00e+00 1.94e-02h  1
  42 -1.2811231e+01 1.32e+02 1.08e+11   0.4 4.16e+00  10.4 1.00e+00 5.31e-04h  1
  43 -1.2810456e+01 1.32e+02 1.29e+11  -1.5 8.79e+00  10.4 8.94e-01 5.62e-04h  1
  44 -1.1578731e+01 8.82e+01 1.19e+11  -0.1 1.67e+01   9.9 1.00e+00 4.81e-01h  1
  45 -1.1566287e+01 8.78e+01 2.00e+11  -0.1 1.69e+01   9.8 1.00e+00 4.24e-03h  1
  46 -1.1503654e+01 8.62e+01 2.99e+11   0.3 3.35e+01   9.4 1.00e+00 8.34e-03h  1
  47r-1.1503654e+01 8.62e+01 1.00e+03   1.9 0.00e+00    -  0.00e+00 6.55e-08R  2
  48r-1.0571015e+01 7.33e+01 9.02e+02   3.3 1.85e+04    -  9.85e-02 4.60e-03f  1
  49 -1.0524260e+01 7.30e+01 7.14e+06   0.8 2.10e+01    -  9.82e-01 4.47e-03h  1
iter    objective    inf_pr   inf_du lg(mu)  ||d||  lg(rg) alpha_du alpha_pr  ls
  50 -1.0518871e+01 7.30e+01 3.89e+06   0.0 5.93e+01    -  1.00e+00 3.59e-04h  1
  51 -9.5816016e+00 6.80e+01 4.17e+06  -1.0 6.04e+01    -  1.00e+00 6.78e-02h  1
  52 -9.5731289e+00 6.80e+01 1.85e+06  -1.5 4.40e+01    -  1.00e+00 7.24e-04h  1
  53 -9.5338973e+00 6.80e+01 1.09e+03  -0.9 9.15e+02    -  1.00e+00 9.73e-05h  8
  54 -9.0953421e+00 6.79e+01 1.07e+07   2.0 9.21e+02    -  1.00e+00 1.15e-03f  4
  55 -9.0716899e+00 6.79e+01 3.47e+08   2.0 1.01e+03    -  2.09e-01 5.49e-05h  7
  56 -9.0396326e+00 6.79e+01 2.62e+10   1.3 1.02e+03    -  2.56e-01 7.42e-05h  7
  57 -9.0101609e+00 6.79e+01 1.12e+12   0.6 1.03e+03    -  1.98e-01 6.78e-05h  7
  58 -8.9807677e+00 6.79e+01 2.62e+17   0.6 1.04e+03    -  3.97e-01 6.73e-05h  7
  59 -8.9585278e+00 6.79e+01 2.27e+19   0.6 1.04e+03    -  2.95e-01 5.09e-05h  5
iter    objective    inf_pr   inf_du lg(mu)  ||d||  lg(rg) alpha_du alpha_pr  ls
  60 -8.9531547e+00 6.79e+01 3.71e+21   0.6 7.24e+02    -  9.80e-01 1.76e-05h  1
  61r-8.9531547e+00 6.79e+01 1.00e+03   1.8 0.00e+00    -  0.00e+00 4.63e-07R  5
  62r-8.0818092e+00 3.52e+02 2.62e+03   4.6 3.79e+03    -  1.03e-02 2.01e-02f  1
  63r-7.9309621e+00 3.29e+02 2.78e+03   3.0 2.98e+03    -  9.40e-02 1.38e-02f  1
  64r-7.7480148e+00 2.90e+02 1.64e+04   2.3 5.35e+02    -  1.94e-01 7.89e-02f  1
  65r-7.6321471e+00 2.72e+02 1.50e+04   2.3 2.93e+02    -  3.10e-01 5.70e-02f  1
  66r-7.2712497e+00 2.65e+02 1.58e+04   2.3 6.12e+02    -  7.21e-02 2.76e-02f  1
  67r-7.2188267e+00 2.44e+02 2.75e+04   2.3 6.96e+02    -  2.17e-01 6.76e-02f  1
  68r-7.2875822e+00 2.36e+02 2.47e+04   2.3 9.59e+01    -  2.01e-01 3.32e-02f  1
  69r-8.1476492e+00 1.63e+02 2.41e+04   2.3 5.17e+01    -  5.45e-02 3.02e-01f  1
iter    objective    inf_pr   inf_du lg(mu)  ||d||  lg(rg) alpha_du alpha_pr  ls
  70r-7.6618362e+00 1.55e+02 6.93e+03   2.3 1.29e+02    -  8.37e-01 5.39e-02f  1
  71r-7.1614291e+00 2.37e+02 8.77e+03   1.6 9.02e+01    -  6.84e-02 9.05e-02f  1
  72r-7.1538183e+00 2.37e+02 7.51e+03   1.6 4.64e+01    -  1.43e-01 8.64e-03f  1
  73r-6.8863380e+00 8.09e+02 8.02e+03   1.6 5.04e+01    -  3.34e-03 2.11e-01f  1
  74r-6.7914687e+00 8.26e+02 1.15e+04   1.6 6.31e+01    -  1.34e-02 8.39e-02f  1
  75r-6.8861793e+00 1.07e+03 5.80e+02   1.6 4.73e+01    -  8.95e-01 1.61e-01f  1
  76r-6.8068529e+00 1.97e+03 1.44e+03  -3.3 5.29e+01    -  1.24e-01 3.61e-01f  1
  77r-6.5908691e+00 1.65e+03 1.35e+03   2.2 6.66e+01    -  1.00e+00 1.59e-01f  1
  78r-6.6632237e+00 5.48e+02 1.06e+03   1.9 1.66e+01    -  7.62e-01 6.69e-01f  1
  79r-6.8077745e+00 3.32e+01 1.45e+03   1.2 5.50e+00    -  1.00e+00 9.39e-01f  1
iter    objective    inf_pr   inf_du lg(mu)  ||d||  lg(rg) alpha_du alpha_pr  ls
  80 -6.8080710e+00 2.68e+01 1.73e+07   0.7 3.56e-01   8.4 1.00e+00 1.92e-01h  1
  81 -6.8080734e+00 2.68e+01 1.73e+07   1.2 3.29e-01   7.9 1.00e+00 1.14e-03h  1
  82 -6.7277539e+00 2.58e+01 1.62e+07   1.7 3.49e+01    -  4.85e-01 3.53e-02f  2
  83 -6.7275238e+00 2.43e+01 1.55e+07   0.3 1.43e+00   7.0 1.00e+00 6.09e-02h  1
  84 -6.7275727e+00 2.32e+01 1.56e+07   1.2 6.68e-01   7.4 1.00e+00 4.50e-02h  1
  85 -6.7279858e+00 2.32e+01 6.09e+07   2.0 1.90e+02    -  2.25e-01 3.31e-05h  1
  86 -6.7416776e+00 2.32e+01 6.41e+07   2.0 9.32e+02    -  1.96e-05 2.92e-04f  2
  87 -8.2882870e+00 3.11e+01 9.66e+07   2.0 3.46e+02    -  1.16e-04 2.59e-02f  1
  88 -8.9661994e+00 2.11e+02 4.84e+08   2.0 8.50e+01    -  1.61e-02 3.89e-02f  2
  89 -8.9747673e+00 2.11e+02 3.64e+08   1.5 2.35e+02    -  3.86e-02 1.91e-04h  1
iter    objective    inf_pr   inf_du lg(mu)  ||d||  lg(rg) alpha_du alpha_pr  ls
  90r-8.9747673e+00 2.11e+02 1.00e+03   2.3 0.00e+00    -  0.00e+00 4.23e-07R  4
  91r-8.9078601e+00 5.25e+01 9.91e+02   3.0 2.06e+05    -  9.71e-03 1.01e-03f  1
  92 -8.8198406e+00 5.25e+01 6.67e+03  -4.0 2.28e+02    -  7.28e-06 1.71e-03h  2
  93 -8.8343379e+00 5.23e+01 7.43e+03   1.7 6.01e+01    -  9.95e-01 4.03e-03h  1
  94 -8.8420620e+00 5.23e+01 3.33e+05   1.3 1.97e+02    -  1.55e-01 2.12e-04h  1
  95 -8.8612090e+00 5.23e+01 3.85e+06   2.0 7.97e+02    -  2.39e-01 4.82e-04h  7
  96 -8.8832429e+00 5.23e+01 1.20e+08   2.0 8.18e+02    -  3.09e-01 5.37e-04h  6
  97 -8.9047131e+00 5.23e+01 1.50e+09   2.0 8.03e+02    -  2.14e-01 5.05e-04h  6
  98 -8.9270399e+00 5.23e+01 2.76e+10   2.0 7.17e+02    -  3.13e-01 5.06e-04h  6
  99 -8.9491502e+00 5.23e+01 3.58e+11   2.0 6.07e+02    -  2.01e-01 4.83e-04h  6
iter    objective    inf_pr   inf_du lg(mu)  ||d||  lg(rg) alpha_du alpha_pr  ls
 100 -8.9709327e+00 5.23e+01 6.97e+12   2.0 7.14e+02    -  2.97e-01 4.58e-04h  6
 101 -8.9921123e+00 5.23e+01 9.63e+13   2.0 1.65e+02    -  1.96e-01 4.28e-04h  6
 102 -9.0127165e+00 5.24e+01 1.89e+15   2.0 3.47e+02    -  2.65e-01 4.00e-04h  6
 103 -9.0177109e+00 5.24e+01 3.11e+16   2.0 4.31e+03    -  2.01e-01 9.36e-05h  8
 104 -9.0708946e+00 6.00e+02 3.09e+16   2.0 1.11e+05    -  9.92e-04 9.92e-04s 12
 105 -9.1537924e+00 1.74e+03 3.06e+16   2.0 2.19e+05    -  1.38e-03 1.38e-03s 13
 106 -9.2152741e+00 1.88e+03 3.07e+16   2.0 1.68e+05    -  8.58e-04 8.58e-04s 13
 107r-9.2152741e+00 1.88e+03 1.00e+03   3.3 0.00e+00    -  0.00e+00 0.00e+00R  1
 108r-8.5486305e+00 1.06e+03 9.29e+02   3.0 2.34e+04    -  9.97e-02 3.50e-02f  1
 109 -8.5530368e+00 1.06e+03 7.70e+09   2.0 5.57e+03    -  1.61e-01 1.28e-04h  1
iter    objective    inf_pr   inf_du lg(mu)  ||d||  lg(rg) alpha_du alpha_pr  ls
 110 -7.8472969e+00 9.71e+02 1.40e+10   2.0 5.49e+02    -  3.35e-05 1.80e-01f  1
 111 -7.8404983e+00 9.67e+02 1.38e+10   2.0 1.89e+02   6.9 1.00e+00 4.13e-03h  1
 112 -7.8404434e+00 9.67e+02 1.38e+10   2.0 1.93e+02   6.4 2.09e-01 2.57e-05h  1
 113 -7.8510530e+00 9.67e+02 1.69e+10   2.0 3.38e+03    -  1.13e-02 1.58e-04h  1
 114 -7.9096475e+00 9.66e+02 1.59e+10   2.0 4.88e+02    -  5.34e-02 8.69e-04h  3
 115 -7.9806526e+00 9.65e+02 1.82e+10   2.0 6.02e+02    -  7.46e-02 1.00e-03h  2
 116 -8.0542090e+00 9.64e+02 2.73e+10   2.0 5.97e+02    -  6.79e-02 1.02e-03h  1
 117r-8.0542090e+00 9.64e+02 1.00e+03   3.0 0.00e+00    -  0.00e+00 4.29e-07R  6
 118r-7.7590680e+00 2.93e+02 9.40e+02   2.7 2.31e+04    -  7.74e-02 2.90e-02f  1
 119 -7.6623542e+00 2.64e+02 1.39e+09   0.3 5.24e+01    -  8.95e-01 1.01e-01h  1
iter    objective    inf_pr   inf_du lg(mu)  ||d||  lg(rg) alpha_du alpha_pr  ls
 120 -7.6577878e+00 2.64e+02 1.38e+09   2.0 3.95e+01    -  5.79e-03 1.11e-03h  1
 121 -7.6577328e+00 2.64e+02 5.18e+07   1.0 4.45e+01    -  1.00e+00 1.10e-05h  1
 122 -7.6675000e+00 2.64e+02 2.05e+09   2.0 4.96e+02    -  8.53e-02 1.32e-04h  1
 123 -7.6895466e+00 2.64e+02 3.71e+09   2.0 7.66e+02    -  6.84e-02 2.63e-04h  1
 124r-7.6895466e+00 2.64e+02 1.00e+03   2.4 0.00e+00    -  0.00e+00 3.24e-07R  4
 125r-7.5840335e+00 5.86e+00 1.06e+03  -3.7 2.18e+04    -  5.29e-01 1.20e-02f  1
 126r-7.5840335e+00 5.86e+00 9.98e+02   1.1 0.00e+00    -  0.00e+00 1.18e-08R  2
 127r-7.5807878e+00 4.82e+00 8.97e+02   0.6 2.82e+03    -  1.01e-01 2.06e-03f  1
 128 -7.5817923e+00 4.82e+00 1.84e+04  -4.0 2.06e+02    -  1.16e-01 4.69e-05h  1
 129 -7.5857697e+00 4.72e+00 2.05e+02   0.8 6.79e+00    -  9.86e-01 1.95e-02h  1
iter    objective    inf_pr   inf_du lg(mu)  ||d||  lg(rg) alpha_du alpha_pr  ls
 130 -7.5875536e+00 4.72e+00 1.42e+02   0.7 4.79e+01    -  4.45e-01 2.24e-04h  1
 131r-7.5875536e+00 4.72e+00 1.00e+03   0.7 0.00e+00    -  0.00e+00 4.69e-07R 15
 132r-7.6436808e+00 4.64e+00 4.37e+02   2.1 5.72e+02    -  5.63e-01 3.57e-03f  1
 133r-7.4118085e+00 3.16e+01 4.83e+03   1.4 1.92e+01    -  6.17e-01 2.75e-01f  1
 134r-7.3967875e+00 2.94e+01 1.40e+03   1.2 8.95e+00    -  9.73e-01 7.16e-02f  1
 135r-7.5042146e+00 6.72e+00 1.37e+03   0.6 2.30e+00    -  4.20e-01 8.36e-01f  1
 136r-7.5411279e+00 2.18e+00 2.19e+02  -0.6 1.63e+00    -  9.91e-01 8.10e-01f  1
 137 -7.5410571e+00 2.17e+00 2.07e-02  -0.1 3.12e+01    -  9.94e-01 2.87e-03h  1
 138r-7.5410571e+00 2.17e+00 1.00e+03   0.3 0.00e+00    -  0.00e+00 2.59e-07R 17
 139r-7.5419432e+00 5.44e-01 5.70e+01   0.6 2.17e+03    -  1.00e+00 9.91e-04f  1
iter    objective    inf_pr   inf_du lg(mu)  ||d||  lg(rg) alpha_du alpha_pr  ls
 140 -7.5419004e+00 5.44e-01 3.68e-01  -4.0 4.45e+00    -  9.65e-01 6.14e-05h  1
 141r-7.5419004e+00 5.44e-01 1.00e+03  -0.3 0.00e+00    -  0.00e+00 4.31e-07R  7
 142r-7.5440513e+00 1.60e-01 3.76e+02   1.6 5.04e+02    -  6.24e-01 1.07e-03f  1
 143 -7.5440456e+00 1.60e-01 1.69e+00  -1.6 1.19e+00    -  9.91e-01 3.89e-04h  1
 144r-7.5440456e+00 1.60e-01 1.00e+03  -0.8 0.00e+00    -  0.00e+00 3.36e-07R 12
 145r-7.5466613e+00 1.11e-01 3.93e+02   1.1 1.36e+02    -  6.07e-01 1.16e-03f  1
 146 -7.5466613e+00 1.11e-01 9.76e-02  -4.0 1.11e-01    -  9.87e-01 1.51e-04h  1
 147r-7.5466613e+00 1.11e-01 1.00e+03  -1.0 0.00e+00    -  0.00e+00 4.74e-07R 14
 148r-7.5460648e+00 1.11e-01 4.12e+00  -1.4 1.54e+01    -  1.00e+00 2.65e-03f  1
 149r-7.5302078e+00 6.05e+00 9.89e+00   0.0 1.62e+00    -  1.00e+00 4.43e-01f  1
iter    objective    inf_pr   inf_du lg(mu)  ||d||  lg(rg) alpha_du alpha_pr  ls
 150r-7.5380901e+00 5.24e+00 5.72e-01  -2.0 3.72e+00    -  9.88e-01 9.88e-01f  1
 151r-7.5646279e+00 2.86e+01 2.32e+00  -3.2 8.94e+00    -  8.56e-01 9.98e-01f  1
 152r-7.2336842e+00 1.64e+02 1.86e+01  -1.4 2.60e+02    -  8.00e-01 1.25e-01f  4
 153r-7.1843203e+00 4.04e+01 2.81e+00  -2.1 2.75e+01    -  8.47e-01 1.00e+00f  1
 154r-7.2525011e+00 1.70e+00 3.70e-01  -2.1 7.96e+00    -  1.00e+00 1.00e+00h  1
 155r-7.3398682e+00 9.74e-01 2.20e+00  -3.0 2.05e+00    -  7.40e-01 1.00e+00f  1
 156r-7.4355496e+00 3.79e-01 3.78e-02  -3.7 1.09e+00    -  1.00e+00 1.00e+00h  1
 157r-7.5624747e+00 7.30e-01 3.39e-02  -5.3 1.33e+00    -  9.98e-01 1.00e+00h  1
 158r-7.6937205e+00 1.01e+00 4.07e-02  -6.9 1.50e+00    -  1.00e+00 1.00e+00h  1
 159r-7.6893080e+00 1.10e-01 7.78e-02  -6.2 7.72e-02    -  1.00e+00 1.00e+00h  1
iter    objective    inf_pr   inf_du lg(mu)  ||d||  lg(rg) alpha_du alpha_pr  ls
 160r-7.6896424e+00 1.10e-01 1.00e-02  -8.0 9.95e-03    -  1.00e+00 1.00e+00h  1
 161r-7.7320869e+00 2.03e+00 3.33e-02  -6.0 5.32e+04    -  1.80e-04 1.86e-05f  1
 162r-7.7322054e+00 2.03e+00 4.01e-01  -6.0 4.32e+01    -  1.00e+00 3.96e-05h  1
 163r-7.4076633e+00 4.44e+01 2.68e-01  -6.0 1.68e+00    -  1.00e+00 1.00e+00h  1
 164r-7.4185157e+00 9.03e-01 1.14e-01  -6.4 6.40e-01    -  1.00e+00 1.00e+00h  1
 165r-7.3691860e+00 1.67e+00 4.21e-02  -7.6 4.22e-01    -  1.00e+00 1.00e+00h  1
 166r-7.2591807e+00 9.62e+00 3.92e-02  -7.3 9.84e-01    -  1.00e+00 1.00e+00h  1
 167r-7.2587091e+00 1.10e-01 3.13e-02  -8.6 1.83e-01    -  1.00e+00 1.00e+00h  1
 168r-7.2224386e+00 1.29e+00 2.22e-02  -9.0 3.90e-01    -  1.00e+00 1.00e+00h  1
 169r-7.2119126e+00 1.33e-01 1.31e-02  -9.0 1.33e-01    -  1.00e+00 1.00e+00h  1
iter    objective    inf_pr   inf_du lg(mu)  ||d||  lg(rg) alpha_du alpha_pr  ls
 170r-7.2119327e+00 1.10e-01 1.18e-03  -9.0 1.18e-03    -  1.00e+00 1.00e+00h  1
 171r-7.2119302e+00 1.10e-01 1.83e-05  -9.0 1.83e-05    -  1.00e+00 1.00e+00h  1
 172r-7.2084771e+00 1.10e-01 1.04e-05  -9.0 3.05e-02    -  1.00e+00 1.00e+00h  1
 173r-7.2084358e+00 1.10e-01 7.62e-05  -9.0 1.56e-02    -  1.00e+00 1.00e+00h  1
 174r-7.2083887e+00 1.10e-01 5.67e-04  -9.0 3.31e-01    -  1.00e+00 1.00e+00h  1
 175r-7.2083937e+00 1.10e-01 1.95e-04  -9.0 2.09e-01    -  1.00e+00 1.00e+00h  1
 176r-7.2084396e+00 1.10e-01 7.91e-05  -9.0 1.10e-01    -  1.00e+00 1.00e+00h  1
 177r-7.2084468e+00 1.10e-01 4.75e-05  -9.0 4.89e-02    -  1.00e+00 1.00e+00h  1
 178r-7.2084602e+00 1.10e-01 2.27e-05  -9.0 3.24e-02    -  1.00e+00 1.00e+00h  1
 179r-7.2085791e+00 1.10e-01 1.94e-04  -9.0 8.38e-03    -  1.00e+00 1.00e+00h  1
iter    objective    inf_pr   inf_du lg(mu)  ||d||  lg(rg) alpha_du alpha_pr  ls
 180r-7.2084727e+00 1.10e-01 4.89e-06  -9.0 1.05e-02    -  1.00e+00 1.00e+00h  1
 181r-7.2084703e+00 1.10e-01 4.30e-06  -9.0 4.24e-03    -  1.00e+00 1.00e+00h  1
 182r-7.2084710e+00 1.10e-01 2.74e-07  -9.0 3.19e-03    -  1.00e+00 1.00e+00h  1

Number of Iterations....: 182

                                   (scaled)                 (unscaled)
Objective...............:  -7.2084699655116138e+00   -7.2084699655116138e+00
Dual infeasibility......:   1.0892553842959718e-01    1.0892553842959718e-01
Constraint violation....:   1.1017883223196712e-01    1.1017883223196712e-01
Variable bound violation:   0.0000000000000000e+00    0.0000000000000000e+00
Complementarity.........:   1.0000000000003295e-09    1.0000000000003295e-09
Overall NLP error.......:   1.1017883223196712e-01    1.1017883223196712e-01


Number of objective function evaluations             = 529
Number of objective gradient evaluations             = 125
Number of equality constraint evaluations            = 529
Number of inequality constraint evaluations          = 529
Number of equality constraint Jacobian evaluations   = 198
Number of inequality constraint Jacobian evaluations = 198
Number of Lagrangian Hessian evaluations             = 0
Total seconds in IPOPT                               = 20.967

EXIT: Converged to a point of local infeasibility. Problem may be infeasible.
